data;

# Combis disponibles
set COMBIS := 1 2 3;

# Empleados a recoger
set PASAJEROS := 1 2 3 4 5 6 7 8 9 10 11 12 13 14 15 16 17 18 19 20;

# Lugares a visitar, empleados (1, 2, ...) + empresa (0)
set UBICACIONES := 0 1 2 3 4 5 6 7 8 9 10 11 12 13 14 15 16 17 18 19 20 21;

param DISTANCIAS :    
             0   1   2   3   4   5   6   7   8   9  10  11  12  13  14  15  16  17  18  19  20  21 :=
        0    .  12  18   9  11  13  14  13  14   7   9   5   9  11  11   6  11   2   4   5   7   5
        1   12   .   6   3   3   5   6   7   8   5   5   7   7   9  11   8  13  10   8   9  11  11
        2   18   6   .   9   7   5   4   5   4  11   9  13   9   7   7  12   7  16  14  13  11  13
        3    9   3   9   .   2   4   5   6   7   2   4   4   6   8  10   7  12   7   7   8  10  10
        4   11   3   7   2   .   2   3   4   5   4   2   6   4   6   8   5  10   9   7   6   8   8
        5   13   5   5   4   2   .   1   2   3   6   4   8   4   4   6   7   8  11   9   8   6   8
        6   14   6   4   5   3   1   .   1   2   7   5   9   5   3   5   8   7  12  10   9   7   9
        7   13   7   5   6   4   2   1   .   1   6   4   8   4   2   4   7   6  11   9   8   6   8
        8   14   8   4   7   5   3   2   1   .   7   5   9   5   3   3   8   5  12  10   9   7   9
        9    7   5  11   2   4   6   7   6   7   .   2   2   4   6   8   5  10   5   5   6   8   8
       10    9   5   9   4   2   4   5   4   5   2   .   4   2   4   6   3   8   7   5   4   6   6
       11    5   7  13   4   6   8   9   8   9   2   4   .   4   6   8   5  10   3   5   6   8   8
       12    9   7   9   6   4   4   5   4   5   4   2   4   .   2   4   3   6   7   5   4   4   4
       13   11   9   7   8   6   4   3   2   3   6   4   6   2   .   2   5   4   9   7   6   4   6
       14   11  11   7  10   8   6   5   4   3   8   6   8   4   2   .   5   2   9   7   6   4   6
       15    6   8  12   7   5   7   8   7   8   5   3   5   3   5   5   .   5   4   2   1   3   3
       16   11  13   7  12  10   8   7   6   5  10   8  10   6   4   2   5   .   9   7   6   4   6
       17    2  10  16   7   9  11  12  11  12   5   7   3   7   9   9   4   9   .   2   3   5   5
       18    4   8  14   7   7   9  10   9  10   5   5   5   5   7   7   2   7   2   .   1   3   3
       19    5   9  13   8   6   8   9   8   9   6   4   6   4   6   6   1   6   3   1   .   2   2
       20    7  11  11  10   8   6   7   6   7   8   6   8   4   4   4   3   4   5   3   2   .   2
       21    5  11  13  10   8   8   9   8   9   8   6   8   4   6   6   3   6   5   3   2   2   .;

# Tiempos de viaje entre lugares
param TIEMPOS :    
             1   2   3   4   5   6   7   8   9  10  11  12  13  14  15  16  17  18  19  20  21 :=
        1    .  12   6   6  10  12  14  16  10  10  14  14  18  22  16  26  20  16  18  22  22
        2   12   .  18  14  10   8  10   8  22  18  26  18  14  14  24  14  32  28  26  22  26
        3    6  18   .   4   8  10  12  14   4   8   8  12  16  20  14  24  14  14  16  20  20
        4    6  14   4   .   4   6   8  10   8   4  12   8  12  16  10  20  18  14  12  16  16
        5   10  10   8   4   .   2   4   6  12   8  16   8   8  12  14  16  22  18  16  12  16
        6   12   8  10   6   2   .   2   4  14  10  18  10   6  10  16  14  24  20  18  14  18
        7   14  10  12   8   4   2   .   2  12   8  16   8   4   8  14  12  22  18  16  12  16
        8   16   8  14  10   6   4   2   .  14  10  18  10   6   6  16  10  24  20  18  14  18
        9   10  22   4   8  12  14  12  14   .   4   4   8  12  16  10  20  10  10  12  16  16
       10   10  18   8   4   8  10   8  10   4   .   8   4   8  12   6  16  14  10   8  12  12
       11   14  26   8  12  16  18  16  18   4   8   .   8  12  16  10  20   6  10  12  16  16
       12   14  18  12   8   8  10   8  10   8   4   8   .   4   8   6  12  14  10   8   8   8
       13   18  14  16  12   8   6   4   6  12   8  12   4   .   4  10   8  18  14  12   8  12
       14   22  14  20  16  12  10   8   6  16  12  16   8   4   .  10   4  18  14  12   8  12
       15   16  24  14  10  14  16  14  16  10   6  10   6  10  10   .  10   8   4   2   6   6
       16   26  14  24  20  16  14  12  10  20  16  20  12   8   4  10   .  18  14  12   8  12
       17   20  32  14  18  22  24  22  24  10  14   6  14  18  18   8  18   .   4   6  10  10
       18   16  28  14  14  18  20  18  20  10  10  10  10  14  14   4  14   4   .   2   6   6
       19   18  26  16  12  16  18  16  18  12   8  12   8  12  12   2  12   6   2   .   4   4
       20   22  22  20  16  12  14  12  14  16  12  16   8   8   8   6   8  10   6   4   .   4
       21   22  26  20  16  16  18  16  18  16  12  16   8  12  12   6  12  10   6   4   4   .;


# Número grande en el contexto del modelo
param M := 15;

# Capacidad máxima de cada combi, en pasajeros
param MAXPASAJEROS := 15;

# Máxima cant de combis 
param MAXCOMBIS := 3;

# Costo por kilómetro recorrido
param COSTOKM := 1;

# Costo por día de contratar una combi
param COSTOALQ := 10;

# Tiempo máximo de viaje desde que se recoge al primer empleado, en minutos
param T := 120;
end;
